! Solving for graph /home/truongxuanhieu/CPLEX-MIP-for-MinSpanLabeling/benchmarks/cabp/D-bcsstk01.mtx.rnd
! Target value is set to 10
! Lower bound is set to 11
! Upper bound is set to 60
! Time limit is set to 1800
! Vertices mode is set to Has hole
Version identifier: 22.2.0.0 | 2026-05-04 | 5dff98e58
CPXPARAM_TimeLimit                               1800
Tried aggregator 2 times.
MIP Presolve eliminated 177 rows and 800 columns.
MIP Presolve modified 48 coefficients.
Aggregator did 848 substitutions.
Reduced MIP has 1201 rows, 1025 columns, and 3024 nonzeros.
Reduced MIP has 224 binaries, 401 generals, 0 SOSs, and 752 indicators.
Presolve time = 0.01 sec. (4.79 ticks)
Probing fixed 0 vars, tightened 1045 bounds.
Probing time = 0.00 sec. (2.73 ticks)
Tried aggregator 1 time.
Detecting symmetries...
MIP Presolve modified 514 coefficients.
Reduced MIP has 1201 rows, 1025 columns, and 3024 nonzeros.
Reduced MIP has 224 binaries, 801 generals, 0 SOSs, and 752 indicators.
Presolve time = 0.00 sec. (2.72 ticks)
Probing time = 0.00 sec. (1.87 ticks)
MIP emphasis: balance optimality and feasibility.
MIP search method: dynamic search.
Parallel mode: deterministic, using up to 8 threads.
Root relaxation solution time = 0.01 sec. (3.27 ticks)

        Nodes                                         Cuts/
   Node  Left     Objective  IInf  Best Integer    Best Bound    ItCnt     Gap

      0     0       20.0000   178                     20.0000        0         
      0     0       20.0000   178                   Cuts: 400      184         
      0     0       20.0000    80                   Cuts: 400      347         
      0     0       20.0000    78                   Cuts: 291      457         
Detecting symmetries...
      0     2       20.0000    78                     20.0000      457         
Elapsed time = 0.16 sec. (103.56 ticks, tree = 0.02 MB, solutions = 0)
   1060   771       51.0000    59                     20.0000    18048         
*  1880  1346      integral     0       60.0000       20.0000    28111   66.67%
   2430  1707       50.0000    52       60.0000       20.0000    34867   66.67%

Performing restart 1

Repeating presolve.
Tried aggregator 1 time.
Reduced MIP has 1201 rows, 1025 columns, and 3024 nonzeros.
Reduced MIP has 224 binaries, 801 generals, 0 SOSs, and 752 indicators.
Presolve time = 0.00 sec. (1.82 ticks)
Tried aggregator 1 time.
Reduced MIP has 1201 rows, 1025 columns, and 3024 nonzeros.
Reduced MIP has 224 binaries, 801 generals, 0 SOSs, and 752 indicators.
Presolve time = 0.00 sec. (2.83 ticks)
Represolve time = 0.01 sec. (8.10 ticks)
   3531     0       21.1111   545       60.0000     Cuts: 107    53117   64.81%
   3531     0       22.0000   489       60.0000     Cuts: 134    53285   63.33%
   3531     0       22.0000   621       60.0000     Cuts: 308    53510   63.33%
   3531     0       22.0000   523       60.0000     Cuts: 117    53676   63.33%
   3531     0       22.0000   376       60.0000     Cuts: 400    53852   63.33%
   3531     0       22.0000   594       60.0000     Cuts: 400    54050   63.33%
   3531     0       22.0000   553       60.0000     Cuts: 383    54278   63.33%
   3531     0       22.1091   728       60.0000     Cuts: 400    54471   63.15%
   3531     0       23.0000   523       60.0000     Cuts: 400    54610   61.67%
   3531     0       23.0000   582       60.0000     Cuts: 361    54757   61.67%
   3531     0       23.0000   433       60.0000     Cuts: 226    54908   61.67%
   3531     0       23.0000   637       60.0000     Cuts: 400    55091   61.67%
   3531     2       23.0000   392       60.0000       24.5714    55091   59.05%
   3603    72       41.0000    64       60.0000       24.5714    56160   59.05%
   3937   336       53.0000    62       60.0000       24.5714    61179   59.05%
   4818   790       53.0000    42       60.0000       24.5714    70179   59.05%
   6030  1607       42.0000   296       60.0000       24.5714    89136   59.05%
   6719  2439       40.0000    96       60.0000       30.0000   114010   50.00%
   7805  3189       40.0000   135       60.0000       30.0000   137481   50.00%
  11161  5167       50.0000   116       60.0000       30.0000   238289   50.00%
Elapsed time = 7.66 sec. (4281.08 ticks, tree = 6.70 MB, solutions = 2)
  14338  6849       50.0000   121       60.0000       31.0000   335368   48.33%
  17082  8141       54.0000   202       60.0000       31.3333   449087   47.78%
  20537  9364       55.0000   200       60.0000       33.4564   546127   44.24%
  23263 10403       36.0000   166       60.0000       35.1282   671213   41.45%
  26577 11356       50.0000   392       60.0000       39.0000   768340   35.00%
  30542 12620       41.0000   173       60.0000       40.0000   880061   33.33%
  34429 12868       50.0000   133       60.0000       40.0000   981688   33.33%
  37083 13989       53.5000   352       60.0000       40.0000  1095941   33.33%
  41070 14713       44.0000   314       60.0000       40.0000  1206962   33.33%
  43576 15126    infeasible             60.0000       40.0000  1296336   33.33%
Elapsed time = 28.03 sec. (13821.33 ticks, tree = 20.09 MB, solutions = 2)
  47687 16347       40.0000   202       60.0000       40.0000  1432734   33.33%
  49816 16412       50.0000   181       60.0000       40.0000  1545805   33.33%
  54059 17538       41.0000   200       60.0000       40.0000  1654576   33.33%
  55838 17574    infeasible             60.0000       40.0000  1758903   33.33%
  60458 17696       50.0000   113       60.0000       40.4000  1847172   32.67%
  62453 18406        cutoff             60.0000       41.0000  1994010   31.67%
  67860 18803       52.0000   140       60.0000       41.0000  2104244   31.67%
  70060 19285       45.5000   346       60.0000       41.0000  2227649   31.67%
  74451 19336       42.5641   375       60.0000       41.0000  2332456   31.67%
  77155 19855       51.0000   254       60.0000       41.0000  2449796   31.67%
Elapsed time = 47.41 sec. (23362.80 ticks, tree = 27.90 MB, solutions = 2)
  79640 19544        cutoff             60.0000       41.0000  2542689   31.67%
  85203 19845       50.0000   148       60.0000       41.6949  2696564   30.51%
  87644 19381       50.0000   134       60.0000       42.5254  2753737   29.12%
  93260 19504        cutoff             60.0000       44.0000  2902503   26.67%
  95326 19076       52.0000   205       60.0000       44.0000  3000499   26.67%
  99534 18693        cutoff             60.0000       46.0000  3078129   23.33%
 104201 17200    infeasible             60.0000       48.0000  3207394   20.00%
 109679 15027        cutoff             60.0000       50.0000  3314336   16.67%
 114805 13217    infeasible             60.0000       50.0000  3390238   16.67%
 119306 11043    infeasible             60.0000       50.0000  3481792   16.67%
Elapsed time = 67.39 sec. (32902.11 ticks, tree = 15.74 MB, solutions = 2)
 127474  8937       50.0000   196       60.0000       50.0000  3578254   16.67%
 130031  6705        cutoff             60.0000       50.0000  3682806   16.67%
 138219  5179       51.0000   101       60.0000       50.0000  3769147   16.67%
 140752  3237        cutoff             60.0000       50.0000  3912877   16.67%

Cover cuts applied:  149
Implied bound cuts applied:  689
Flow cuts applied:  12
Mixed integer rounding cuts applied:  446
Zero-half cuts applied:  2
Gomory fractional cuts applied:  75

Root node processing (before b&c):
  Real time             =    0.16 sec. (103.08 ticks)
Parallel b&c, 8 threads:
  Real time             =   78.45 sec. (37527.94 ticks)
  Sync time (average)   =   21.91 sec.
  Wait time (average)   =    0.01 sec.
                          ------------
Total (root+branch&cut) =   78.60 sec. (37631.02 ticks)
! --------------------------------------------------------
! Solve = 1
! Status = Optimal
! Cplex status = Optimal
! Obj = 60
! BestBound = 60
! --------------------------------------------------------
! --------------------------------------------------------
! Best span = 60
! Labeling: 60 21 1 50 21 60 40 60 11 30 60 40 10 20 50 10 60 30 50 10 50 50 11 40 40 40 30 20 50 50 60 10 20 20 20 30 60 40 30 40 40 60 40 1 31 50 20 30 
! --------------------------------------------------------
